p cnf 181 720
c p weight 76 0 0
c p weight -76 1 0
c p weight 77 1.0 0
c p weight -77 1 0
72 -71 69 0
72 -71 70 0
-72 71 69 0
-72 71 70 0
72 71 -69 -70 0
-72 -71 -69 -70 0
73 69 -70 0
73 -69 70 0
-73 69 70 0
-73 -69 -70 0
74 75 -72 0
74 -72 73 0
-74 75 72 0
-74 72 73 0
74 -72 -69 0
-74 72 -69 0
74 -75 72 69 -73 0
-74 -75 -72 69 -73 0
75 -69 73 0
-75 69 73 0
-76 73 0
75 -76 -69 0
-75 -76 69 0
75 76 69 -73 0
-75 76 -69 -73 0
-77 73 0
75 -77 69 0
-75 -77 -69 0
75 77 -69 -73 0
-75 77 69 -73 0
78 -74 75 0
78 -74 73 0
-78 74 75 0
-78 74 73 0
78 74 -75 -73 0
-78 -74 -75 -73 0
79 75 -73 0
79 -75 73 0
-79 75 73 0
-79 -75 -73 0
80 -78 75 0
80 -78 68 0
-80 78 75 0
-80 78 68 0
80 -78 67 -79 0
80 -78 -67 79 0
-80 78 67 -79 0
-80 78 -67 79 0
80 78 -75 67 79 -68 0
80 78 -75 -67 -79 -68 0
-80 -78 -75 67 79 -68 0
-80 -78 -75 -67 -79 -68 0
82 75 -67 0
82 -75 67 0
-82 75 67 0
-82 -75 -67 0
81 79 -68 0
81 -79 68 0
-81 79 68 0
-81 -79 -68 0
83 -80 82 0
83 -80 66 0
-83 80 82 0
-83 80 66 0
83 -80 65 -68 0
83 -80 -65 68 0
-83 80 65 -68 0
-83 80 -65 68 0
83 80 -82 65 68 -66 0
83 80 -82 -65 -68 -66 0
-83 -80 -82 65 68 -66 0
-83 -80 -82 -65 -68 -66 0
85 82 -65 0
85 -82 65 0
-85 82 65 0
-85 -82 -65 0
84 68 -66 0
84 -68 66 0
-84 68 66 0
-84 -68 -66 0
86 -83 85 0
86 -83 64 0
-86 83 85 0
-86 83 64 0
86 -83 63 -66 0
86 -83 -63 66 0
-86 83 63 -66 0
-86 83 -63 66 0
86 83 -85 63 66 -64 0
86 83 -85 -63 -66 -64 0
-86 -83 -85 63 66 -64 0
-86 -83 -85 -63 -66 -64 0
88 85 -63 0
88 -85 63 0
-88 85 63 0
-88 -85 -63 0
87 66 -64 0
87 -66 64 0
-87 66 64 0
-87 -66 -64 0
89 -86 88 0
89 -86 62 0
-89 86 88 0
-89 86 62 0
89 -86 61 -64 0
89 -86 -61 64 0
-89 86 61 -64 0
-89 86 -61 64 0
89 86 -88 61 64 -62 0
89 86 -88 -61 -64 -62 0
-89 -86 -88 61 64 -62 0
-89 -86 -88 -61 -64 -62 0
91 88 -61 0
91 -88 61 0
-91 88 61 0
-91 -88 -61 0
90 64 -62 0
90 -64 62 0
-90 64 62 0
-90 -64 -62 0
92 -89 91 0
92 -89 60 0
-92 89 91 0
-92 89 60 0
92 -89 59 -62 0
92 -89 -59 62 0
-92 89 59 -62 0
-92 89 -59 62 0
92 89 -91 59 62 -60 0
92 89 -91 -59 -62 -60 0
-92 -89 -91 59 62 -60 0
-92 -89 -91 -59 -62 -60 0
94 91 -59 0
94 -91 59 0
-94 91 59 0
-94 -91 -59 0
93 62 -60 0
93 -62 60 0
-93 62 60 0
-93 -62 -60 0
95 -92 94 0
95 -92 58 0
-95 92 94 0
-95 92 58 0
95 -92 57 -60 0
95 -92 -57 60 0
-95 92 57 -60 0
-95 92 -57 60 0
95 92 -94 57 60 -58 0
95 92 -94 -57 -60 -58 0
-95 -92 -94 57 60 -58 0
-95 -92 -94 -57 -60 -58 0
97 94 -57 0
97 -94 57 0
-97 94 57 0
-97 -94 -57 0
96 60 -58 0
96 -60 58 0
-96 60 58 0
-96 -60 -58 0
98 -95 97 0
98 -95 56 0
-98 95 97 0
-98 95 56 0
98 -95 55 -58 0
98 -95 -55 58 0
-98 95 55 -58 0
-98 95 -55 58 0
98 95 -97 55 58 -56 0
98 95 -97 -55 -58 -56 0
-98 -95 -97 55 58 -56 0
-98 -95 -97 -55 -58 -56 0
100 97 -55 0
100 -97 55 0
-100 97 55 0
-100 -97 -55 0
99 58 -56 0
99 -58 56 0
-99 58 56 0
-99 -58 -56 0
101 -98 100 0
101 -98 54 0
-101 98 100 0
-101 98 54 0
101 -98 53 -56 0
101 -98 -53 56 0
-101 98 53 -56 0
-101 98 -53 56 0
101 98 -100 53 56 -54 0
101 98 -100 -53 -56 -54 0
-101 -98 -100 53 56 -54 0
-101 -98 -100 -53 -56 -54 0
103 100 -53 0
103 -100 53 0
-103 100 53 0
-103 -100 -53 0
102 56 -54 0
102 -56 54 0
-102 56 54 0
-102 -56 -54 0
104 -101 103 0
104 -101 52 0
-104 101 103 0
-104 101 52 0
104 -101 51 -54 0
104 -101 -51 54 0
-104 101 51 -54 0
-104 101 -51 54 0
104 101 -103 51 54 -52 0
104 101 -103 -51 -54 -52 0
-104 -101 -103 51 54 -52 0
-104 -101 -103 -51 -54 -52 0
106 103 -51 0
106 -103 51 0
-106 103 51 0
-106 -103 -51 0
105 54 -52 0
105 -54 52 0
-105 54 52 0
-105 -54 -52 0
107 -104 106 0
107 -104 50 0
-107 104 106 0
-107 104 50 0
107 -104 49 -52 0
107 -104 -49 52 0
-107 104 49 -52 0
-107 104 -49 52 0
107 104 -106 49 52 -50 0
107 104 -106 -49 -52 -50 0
-107 -104 -106 49 52 -50 0
-107 -104 -106 -49 -52 -50 0
109 106 -49 0
109 -106 49 0
-109 106 49 0
-109 -106 -49 0
108 52 -50 0
108 -52 50 0
-108 52 50 0
-108 -52 -50 0
110 -107 109 0
110 -107 48 0
-110 107 109 0
-110 107 48 0
110 -107 47 -50 0
110 -107 -47 50 0
-110 107 47 -50 0
-110 107 -47 50 0
110 107 -109 47 50 -48 0
110 107 -109 -47 -50 -48 0
-110 -107 -109 47 50 -48 0
-110 -107 -109 -47 -50 -48 0
112 109 -47 0
112 -109 47 0
-112 109 47 0
-112 -109 -47 0
111 50 -48 0
111 -50 48 0
-111 50 48 0
-111 -50 -48 0
113 -110 112 0
113 -110 46 0
-113 110 112 0
-113 110 46 0
113 -110 45 -48 0
113 -110 -45 48 0
-113 110 45 -48 0
-113 110 -45 48 0
113 110 -112 45 48 -46 0
113 110 -112 -45 -48 -46 0
-113 -110 -112 45 48 -46 0
-113 -110 -112 -45 -48 -46 0
115 112 -45 0
115 -112 45 0
-115 112 45 0
-115 -112 -45 0
114 48 -46 0
114 -48 46 0
-114 48 46 0
-114 -48 -46 0
116 -113 115 0
116 -113 44 0
-116 113 115 0
-116 113 44 0
116 -113 43 -46 0
116 -113 -43 46 0
-116 113 43 -46 0
-116 113 -43 46 0
116 113 -115 43 46 -44 0
116 113 -115 -43 -46 -44 0
-116 -113 -115 43 46 -44 0
-116 -113 -115 -43 -46 -44 0
118 115 -43 0
118 -115 43 0
-118 115 43 0
-118 -115 -43 0
117 46 -44 0
117 -46 44 0
-117 46 44 0
-117 -46 -44 0
119 -116 118 0
119 -116 42 0
-119 116 118 0
-119 116 42 0
119 -116 41 -44 0
119 -116 -41 44 0
-119 116 41 -44 0
-119 116 -41 44 0
119 116 -118 41 44 -42 0
119 116 -118 -41 -44 -42 0
-119 -116 -118 41 44 -42 0
-119 -116 -118 -41 -44 -42 0
121 118 -41 0
121 -118 41 0
-121 118 41 0
-121 -118 -41 0
120 44 -42 0
120 -44 42 0
-120 44 42 0
-120 -44 -42 0
122 -119 121 0
122 -119 40 0
-122 119 121 0
-122 119 40 0
122 -119 39 -42 0
122 -119 -39 42 0
-122 119 39 -42 0
-122 119 -39 42 0
122 119 -121 39 42 -40 0
122 119 -121 -39 -42 -40 0
-122 -119 -121 39 42 -40 0
-122 -119 -121 -39 -42 -40 0
124 121 -39 0
124 -121 39 0
-124 121 39 0
-124 -121 -39 0
123 42 -40 0
123 -42 40 0
-123 42 40 0
-123 -42 -40 0
125 -122 124 0
125 -122 38 0
-125 122 124 0
-125 122 38 0
125 -122 37 -40 0
125 -122 -37 40 0
-125 122 37 -40 0
-125 122 -37 40 0
125 122 -124 37 40 -38 0
125 122 -124 -37 -40 -38 0
-125 -122 -124 37 40 -38 0
-125 -122 -124 -37 -40 -38 0
127 124 -37 0
127 -124 37 0
-127 124 37 0
-127 -124 -37 0
126 40 -38 0
126 -40 38 0
-126 40 38 0
-126 -40 -38 0
128 -125 127 0
128 -125 36 0
-128 125 127 0
-128 125 36 0
128 -125 35 -38 0
128 -125 -35 38 0
-128 125 35 -38 0
-128 125 -35 38 0
128 125 -127 35 38 -36 0
128 125 -127 -35 -38 -36 0
-128 -125 -127 35 38 -36 0
-128 -125 -127 -35 -38 -36 0
130 127 -35 0
130 -127 35 0
-130 127 35 0
-130 -127 -35 0
129 38 -36 0
129 -38 36 0
-129 38 36 0
-129 -38 -36 0
131 -128 130 0
131 -128 34 0
-131 128 130 0
-131 128 34 0
131 -128 33 -36 0
131 -128 -33 36 0
-131 128 33 -36 0
-131 128 -33 36 0
131 128 -130 33 36 -34 0
131 128 -130 -33 -36 -34 0
-131 -128 -130 33 36 -34 0
-131 -128 -130 -33 -36 -34 0
133 130 -33 0
133 -130 33 0
-133 130 33 0
-133 -130 -33 0
132 36 -34 0
132 -36 34 0
-132 36 34 0
-132 -36 -34 0
134 -131 133 0
134 -131 32 0
-134 131 133 0
-134 131 32 0
134 -131 31 -34 0
134 -131 -31 34 0
-134 131 31 -34 0
-134 131 -31 34 0
134 131 -133 31 34 -32 0
134 131 -133 -31 -34 -32 0
-134 -131 -133 31 34 -32 0
-134 -131 -133 -31 -34 -32 0
136 133 -31 0
136 -133 31 0
-136 133 31 0
-136 -133 -31 0
135 34 -32 0
135 -34 32 0
-135 34 32 0
-135 -34 -32 0
137 -134 136 0
137 -134 30 0
-137 134 136 0
-137 134 30 0
137 -134 29 -32 0
137 -134 -29 32 0
-137 134 29 -32 0
-137 134 -29 32 0
137 134 -136 29 32 -30 0
137 134 -136 -29 -32 -30 0
-137 -134 -136 29 32 -30 0
-137 -134 -136 -29 -32 -30 0
139 136 -29 0
139 -136 29 0
-139 136 29 0
-139 -136 -29 0
138 32 -30 0
138 -32 30 0
-138 32 30 0
-138 -32 -30 0
140 -137 139 0
140 -137 28 0
-140 137 139 0
-140 137 28 0
140 -137 27 -30 0
140 -137 -27 30 0
-140 137 27 -30 0
-140 137 -27 30 0
140 137 -139 27 30 -28 0
140 137 -139 -27 -30 -28 0
-140 -137 -139 27 30 -28 0
-140 -137 -139 -27 -30 -28 0
142 139 -27 0
142 -139 27 0
-142 139 27 0
-142 -139 -27 0
141 30 -28 0
141 -30 28 0
-141 30 28 0
-141 -30 -28 0
143 -140 142 0
143 -140 26 0
-143 140 142 0
-143 140 26 0
143 -140 25 -28 0
143 -140 -25 28 0
-143 140 25 -28 0
-143 140 -25 28 0
143 140 -142 25 28 -26 0
143 140 -142 -25 -28 -26 0
-143 -140 -142 25 28 -26 0
-143 -140 -142 -25 -28 -26 0
145 142 -25 0
145 -142 25 0
-145 142 25 0
-145 -142 -25 0
144 28 -26 0
144 -28 26 0
-144 28 26 0
-144 -28 -26 0
146 -143 145 0
146 -143 24 0
-146 143 145 0
-146 143 24 0
146 -143 23 -26 0
146 -143 -23 26 0
-146 143 23 -26 0
-146 143 -23 26 0
146 143 -145 23 26 -24 0
146 143 -145 -23 -26 -24 0
-146 -143 -145 23 26 -24 0
-146 -143 -145 -23 -26 -24 0
148 145 -23 0
148 -145 23 0
-148 145 23 0
-148 -145 -23 0
147 26 -24 0
147 -26 24 0
-147 26 24 0
-147 -26 -24 0
149 -146 148 0
149 -146 22 0
-149 146 148 0
-149 146 22 0
149 -146 21 -24 0
149 -146 -21 24 0
-149 146 21 -24 0
-149 146 -21 24 0
149 146 -148 21 24 -22 0
149 146 -148 -21 -24 -22 0
-149 -146 -148 21 24 -22 0
-149 -146 -148 -21 -24 -22 0
151 148 -21 0
151 -148 21 0
-151 148 21 0
-151 -148 -21 0
150 24 -22 0
150 -24 22 0
-150 24 22 0
-150 -24 -22 0
152 -149 151 0
152 -149 20 0
-152 149 151 0
-152 149 20 0
152 -149 19 -22 0
152 -149 -19 22 0
-152 149 19 -22 0
-152 149 -19 22 0
152 149 -151 19 22 -20 0
152 149 -151 -19 -22 -20 0
-152 -149 -151 19 22 -20 0
-152 -149 -151 -19 -22 -20 0
154 151 -19 0
154 -151 19 0
-154 151 19 0
-154 -151 -19 0
153 22 -20 0
153 -22 20 0
-153 22 20 0
-153 -22 -20 0
155 -152 154 0
155 -152 18 0
-155 152 154 0
-155 152 18 0
155 -152 17 -20 0
155 -152 -17 20 0
-155 152 17 -20 0
-155 152 -17 20 0
155 152 -154 17 20 -18 0
155 152 -154 -17 -20 -18 0
-155 -152 -154 17 20 -18 0
-155 -152 -154 -17 -20 -18 0
157 154 -17 0
157 -154 17 0
-157 154 17 0
-157 -154 -17 0
156 20 -18 0
156 -20 18 0
-156 20 18 0
-156 -20 -18 0
158 -155 157 0
158 -155 16 0
-158 155 157 0
-158 155 16 0
158 -155 15 -18 0
158 -155 -15 18 0
-158 155 15 -18 0
-158 155 -15 18 0
158 155 -157 15 18 -16 0
158 155 -157 -15 -18 -16 0
-158 -155 -157 15 18 -16 0
-158 -155 -157 -15 -18 -16 0
160 157 -15 0
160 -157 15 0
-160 157 15 0
-160 -157 -15 0
159 18 -16 0
159 -18 16 0
-159 18 16 0
-159 -18 -16 0
161 -158 160 0
161 -158 14 0
-161 158 160 0
-161 158 14 0
161 -158 13 -16 0
161 -158 -13 16 0
-161 158 13 -16 0
-161 158 -13 16 0
161 158 -160 13 16 -14 0
161 158 -160 -13 -16 -14 0
-161 -158 -160 13 16 -14 0
-161 -158 -160 -13 -16 -14 0
163 160 -13 0
163 -160 13 0
-163 160 13 0
-163 -160 -13 0
162 16 -14 0
162 -16 14 0
-162 16 14 0
-162 -16 -14 0
164 -161 163 0
164 -161 12 0
-164 161 163 0
-164 161 12 0
164 -161 11 -14 0
164 -161 -11 14 0
-164 161 11 -14 0
-164 161 -11 14 0
164 161 -163 11 14 -12 0
164 161 -163 -11 -14 -12 0
-164 -161 -163 11 14 -12 0
-164 -161 -163 -11 -14 -12 0
166 163 -11 0
166 -163 11 0
-166 163 11 0
-166 -163 -11 0
165 14 -12 0
165 -14 12 0
-165 14 12 0
-165 -14 -12 0
167 -164 166 0
167 -164 10 0
-167 164 166 0
-167 164 10 0
167 -164 9 -12 0
167 -164 -9 12 0
-167 164 9 -12 0
-167 164 -9 12 0
167 164 -166 9 12 -10 0
167 164 -166 -9 -12 -10 0
-167 -164 -166 9 12 -10 0
-167 -164 -166 -9 -12 -10 0
169 166 -9 0
169 -166 9 0
-169 166 9 0
-169 -166 -9 0
168 12 -10 0
168 -12 10 0
-168 12 10 0
-168 -12 -10 0
170 -167 169 0
170 -167 8 0
-170 167 169 0
-170 167 8 0
170 -167 7 -10 0
170 -167 -7 10 0
-170 167 7 -10 0
-170 167 -7 10 0
170 167 -169 7 10 -8 0
170 167 -169 -7 -10 -8 0
-170 -167 -169 7 10 -8 0
-170 -167 -169 -7 -10 -8 0
172 169 -7 0
172 -169 7 0
-172 169 7 0
-172 -169 -7 0
171 10 -8 0
171 -10 8 0
-171 10 8 0
-171 -10 -8 0
173 -170 172 0
173 -170 6 0
-173 170 172 0
-173 170 6 0
173 -170 5 -8 0
173 -170 -5 8 0
-173 170 5 -8 0
-173 170 -5 8 0
173 170 -172 5 8 -6 0
173 170 -172 -5 -8 -6 0
-173 -170 -172 5 8 -6 0
-173 -170 -172 -5 -8 -6 0
175 172 -5 0
175 -172 5 0
-175 172 5 0
-175 -172 -5 0
174 8 -6 0
174 -8 6 0
-174 8 6 0
-174 -8 -6 0
176 -173 175 0
176 -173 4 0
-176 173 175 0
-176 173 4 0
176 -173 3 -6 0
176 -173 -3 6 0
-176 173 3 -6 0
-176 173 -3 6 0
176 173 -175 3 6 -4 0
176 173 -175 -3 -6 -4 0
-176 -173 -175 3 6 -4 0
-176 -173 -175 -3 -6 -4 0
178 175 -3 0
178 -175 3 0
-178 175 3 0
-178 -175 -3 0
177 6 -4 0
177 -6 4 0
-177 6 4 0
-177 -6 -4 0
179 -176 178 0
179 -176 2 0
-179 176 178 0
-179 176 2 0
179 -176 1 -4 0
179 -176 -1 4 0
-179 176 1 -4 0
-179 176 -1 4 0
179 176 -178 1 4 -2 0
179 176 -178 -1 -4 -2 0
-179 -176 -178 1 4 -2 0
-179 -176 -178 -1 -4 -2 0
181 178 -1 0
181 -178 1 0
-181 178 1 0
-181 -178 -1 0
180 4 -2 0
180 -4 2 0
-180 4 2 0
-180 -4 -2 0
